0 3 444 481 869 778 757 141 395 721 318 191 741 773 41 
415 0 458 200 436 703 112 686 395 356 340 128 241 873 541 
96 900 0 802 427 839 94 199 490 833 549 453 263 521 139 
450 400 779 0 63 695 187 474 878 267 141 613 205 324 882 
672 418 827 35 0 623 189 469 524 67 222 430 247 691 462 
855 567 133 782 598 0 242 769 313 497 82 604 47 712 791 
789 13 607 74 312 425 0 700 784 381 290 586 632 146 434 
596 676 688 497 404 853 683 0 7 353 542 735 728 64 431 
42 203 180 221 823 403 314 613 0 553 315 864 579 17 397 
294 732 450 545 729 604 645 105 169 0 757 809 787 884 172 
214 587 139 128 200 609 626 33 831 740 0 115 326 864 539 
896 315 663 815 635 279 649 566 715 73 343 0 548 630 735 
469 29 596 636 743 152 288 634 763 669 798 346 0 25 110 
541 810 860 440 187 52 606 39 527 663 212 740 541 0 677 
466 178 654 771 385 12 99 323 867 36 561 13 200 535 0 